Version identifier: 22.1.0.0 | 2022-03-09 | 1a383f8ce
CPXPARAM_Read_DataCheck                          1
1 of 1 MIP starts provided solutions.
MIP start 'm1' defined initial solution with objective 17.0000.
Tried aggregator 3 times.
MIP Presolve eliminated 2282 rows and 594 columns.
MIP Presolve modified 71 coefficients.
Aggregator did 1755 substitutions.
Reduced MIP has 618 rows, 1901 columns, and 4404 nonzeros.
Reduced MIP has 1891 binaries, 10 generals, 0 SOSs, and 0 indicators.
Presolve time = 0.01 sec. (12.60 ticks)
Probing fixed 13 vars, tightened 0 bounds.
Probing time = 0.00 sec. (2.83 ticks)
Tried aggregator 2 times.
Detecting symmetries...
MIP Presolve eliminated 12 rows and 67 columns.
Aggregator did 9 substitutions.
Reduced MIP has 597 rows, 1825 columns, and 4225 nonzeros.
Reduced MIP has 1815 binaries, 10 generals, 0 SOSs, and 0 indicators.
Presolve time = 0.01 sec. (5.59 ticks)
Probing fixed 1 vars, tightened 0 bounds.
Probing time = 0.00 sec. (1.42 ticks)
Clique table members: 3837.
MIP emphasis: balance optimality and feasibility.
MIP search method: dynamic search.
Parallel mode: deterministic, using up to 8 threads.
Root relaxation solution time = 0.02 sec. (8.10 ticks)

        Nodes                                         Cuts/
   Node  Left     Objective  IInf  Best Integer    Best Bound    ItCnt     Gap

*     0+    0                           17.0000        0.0000           100.00%
      0     0       10.4095   420       17.0000       10.4095      477   38.77%
      0     0       16.0000   267       17.0000      Cuts: 58      818    5.88%
      0     0        cutoff             17.0000                   2674    0.00%
Elapsed time = 0.39 sec. (202.40 ticks, tree = 0.01 MB, solutions = 1)

Clique cuts applied:  1
Zero-half cuts applied:  15
Gomory fractional cuts applied:  8

Root node processing (before b&c):
  Real time             =    0.39 sec. (202.55 ticks)
Parallel b&c, 8 threads:
  Real time             =    0.00 sec. (0.00 ticks)
  Sync time (average)   =    0.00 sec.
  Wait time (average)   =    0.00 sec.
                          ------------
Total (root+branch&cut) =    0.39 sec. (202.55 ticks)
